data/MCDM/NO_CORR/GEN_FROM_60/14_ITEMS_1000_GEN/K5014W06.KNP.mps
NAME          BLANK   
ROWS
 N  OBJROW
 L  R0000000
COLUMNS
    C0000000  OBJROW     -513.         R0000000  805.        
    C0000001  OBJROW     -226.         R0000000  788.        
    C0000002  OBJROW     -65.          R0000000  623.        
    C0000003  OBJROW     -519.         R0000000  583.        
    C0000004  OBJROW     -429.         R0000000  641.        
    C0000005  OBJROW     -37.          R0000000  49.         
    C0000006  OBJROW     -69.          R0000000  402.        
    C0000007  OBJROW     -177.         R0000000  985.        
    C0000008  OBJROW     -665.         R0000000  618.        
    C0000009  OBJROW     -336.         R0000000  451.        
    C0000010  OBJROW     -18.          R0000000  512.        
    C0000011  OBJROW     -673.         R0000000  761.        
    C0000012  OBJROW     -725.         R0000000  217.        
    C0000013  OBJROW     -846.         R0000000  786.        
RHS
    RHS       R0000000  14444.      
BOUNDS
 BV BOUND     C0000000  1.          
 BV BOUND     C0000001  1.          
 BV BOUND     C0000002  1.          
 BV BOUND     C0000003  1.          
 BV BOUND     C0000004  1.          
 BV BOUND     C0000005  1.          
 BV BOUND     C0000006  1.          
 BV BOUND     C0000007  1.          
 BV BOUND     C0000008  1.          
 BV BOUND     C0000009  1.          
 BV BOUND     C0000010  1.          
 BV BOUND     C0000011  1.          
 BV BOUND     C0000012  1.          
 BV BOUND     C0000013  1.          
ENDATA
