interdiction/MCDM/NO_CORR/GEN_FROM_60/14_ITEMS_1000_GEN/K5014W06.KNP.txt
N 14
M 15
LC 14
LC 15
LC 16
LC 17
LC 18
LC 19
LC 20
LC 21
LC 22
LC 23
LC 24
LC 25
LC 26
LC 27
LR 1
LR 2
LR 3
LR 4
LR 5
LR 6
LR 7
LR 8
LR 9
LR 10
LR 11
LR 12
LR 13
LR 14
LR 15
LO -513
LO -226
LO -65
LO -519
LO -429
LO -37
LO -69
LO -177
LO -665
LO -336
LO -18
LO -673
LO -725
LO -846
OS 1
IC 372
IC 562
IC 417
IC 817
IC 9
IC 934
IC 805
IC 421
IC 134
IC 317
IC 478
IC 419
IC 986
IC 16
IB 3344
